NAME : mar50_100_3
COMMENT : Data set with 50 points
COMMENT : CIn-UFPE
COMMENT : Contributed by Marcelo Lacerda
TYPE : TSP
DIMENSION : 50
EDGE_WEIGHT_TYPE : EUC_2D
NODE_COORD_SECTION
1 17 79
2 49 64
3 74 62
4 46 75
5 19 62
6 39 46
7 95 8
8 22 52
9 1 13
10 39 84
11 11 0
12 34 82
13 85 51
14 37 7
15 5 59
16 83 88
17 49 10
18 42 8
19 42 54
20 54 64
21 30 94
22 5 2
23 66 79
24 15 95
25 92 28
26 67 76
27 70 3
28 38 40
29 52 53
30 18 43
31 55 72
32 71 31
33 33 41
34 88 99
35 24 76
36 27 81
37 80 13
38 46 65
39 30 37
40 37 78
41 82 57
42 91 73
43 59 23
44 81 77
45 17 62
46 17 25
47 44 37
48 11 47
49 52 39
50 25 34
EOF
